rehearsal = [[0,1,0,1,0,0,1,0,1,1], [1,0,0,0,1,1,1,1,1,1], [1,1,1,0,0,1,0,1,0,1], [1,1,1,1,1,0,1,0,1,1], [1,0,0,1,1,1,0,1,0,1], [0,1,1,1,1,0,1,0,0,1], [1,1,1,0,0,0,1,1,1,0], [0,0,1,1,0,0,1,0,1,0], [1,1,1,0,0,0,1,1,1,1], [0,1,1,0,1,0,0,1,1,1], [0,1,0,0,1,0,1,1,1,1], [0,1,1,0,0,0,0,1,1,1], [1,1,1,0,1,1,0,1,1,1], [0,1,0,0,0,1,1,1,1,0], [0,1,1,0,0,0,0,1,1,1], [0,1,1,1,1,0,0,1,0,1], [1,0,0,0,1,0,1,1,1,1], [1,0,0,1,0,1,0,0,1,1], [0,0,0,1,0,1,0,1,0,1], [0,0,0,0,1,0,1,0,1,0], [0,0,1,1,1,1,0,1,0,1], [0,0,1,0,0,1,1,0,1,1], [1,0,0,1,1,0,0,1,1,0], [0,1,1,1,1,0,0,1,0,1], [1,1,1,1,1,0,1,1,1,0]];
permutations = [1,6,9,7,10,3,4,2,8,5];